40
2 564
194 808
585 480
350 896
823 746
174 859
710 514
304 15
92 365
148 166
988 446
119 5
9 378
532 571
602 607
167 663
451 352
57 608
783 802
520 302
876 726
955 925
539 143
462 236
862 210
779 843
996 999
611 393
266 297
840 24
376 93
677 57
9 918
276 273
588 691
837 726
485 206
743 468
458 949
744 109
